LibMLKEM/why3-cvc5/mlkem.adb_878_25_assert_1.smt2
;; produced by cvc5.drv ;;
(set-logic ALL)
(set-info :smt-lib-version 2.6)
;;; generated by SMT-LIB2 driver
;;; SMT-LIB2 driver: bit-vectors, common part
;;; SMT-LIB2: integer arithmetic
;; "pow2"
(declare-fun pow2 (Int) Int)

(declare-const two_power_size_minus_one Int)

;; "two_power_size_minus_one_val"
(assert (= two_power_size_minus_one (pow2 (- 8 1))))

;; "min"
(define-fun min ((x Int) (y Int)) Int
  (ite (<= x y) x y))

;; "max"
(define-fun max ((x Int) (y Int)) Int
  (ite (<= x y) y x))

;; "Min_r"
(assert (forall ((x Int) (y Int)) (=> (<= y x) (= (min x y) y))))

;; "Max_l"
(assert (forall ((x Int) (y Int)) (=> (<= y x) (= (max x y) x))))

;; "Min_comm"
(assert (forall ((x Int) (y Int)) (= (min x y) (min y x))))

;; "Max_comm"
(assert (forall ((x Int) (y Int)) (= (max x y) (max y x))))

;; "Min_assoc"
(assert
  (forall ((x Int) (y Int) (z Int)) (= (min (min x y) z) (min x (min y z)))))

;; "Max_assoc"
(assert
  (forall ((x Int) (y Int) (z Int)) (= (max (max x y) z) (max x (max y z)))))

(declare-const two_power_size_minus_one1 Int)

;; "two_power_size_minus_one_val"
(assert (= two_power_size_minus_one1 (pow2 (- 16 1))))

(declare-sort u8_bit 0)

;; "in_range"
(define-fun in_range ((x (_ BitVec 8))) Bool
  (and (bvule #x00 x) (bvule x #x01)))

;; "to_rep"
(declare-fun to_rep (u8_bit) (_ BitVec 8))

;; "of_rep"
(declare-fun of_rep ((_ BitVec 8)) u8_bit)

;; "inversion_axiom"
(assert
  (forall ((x u8_bit)) (! (= (of_rep (to_rep x)) x) :pattern ((to_rep x)) )))

;; "range_axiom"
(assert
  (forall ((x u8_bit)) (! (in_range (to_rep x)) :pattern ((to_rep x)) )))

;; "coerce_axiom"
(assert
  (forall ((x (_ BitVec 8)))
    (! (=> (in_range x) (= (to_rep (of_rep x)) x)) :pattern ((to_rep
                                                               (of_rep x))) )))

(declare-sort map1 0)

;; "has_bounds"
(declare-fun has_bounds (map1
  Int
  Int) Bool)

;; "get"
(declare-fun get (map1
  Int) u8_bit)

;; "slide"
(declare-fun slide (map1
  Int
  Int) map1)

;; "slide_eq"
(assert
  (forall ((a map1) (first Int))
    (! (= (slide a first first) a) :pattern ((slide a first first)) )))

;; "slide_def"
(assert
  (forall ((a map1) (old_first Int) (new_first Int))
    (! (and
         (forall ((i Int))
           (! (= (get (slide a old_first new_first) i) (get
                                                         a
                                                         (- i (- new_first old_first)))) :pattern (
           (get
             (slide a old_first new_first)
             i)) ))
         (forall ((new_last Int))
           (! (=>
                (has_bounds a old_first (- new_last (- new_first old_first)))
                (has_bounds (slide a old_first new_first) new_first new_last)) :pattern (
           (has_bounds
             (slide a old_first new_first)
             new_first
             new_last)) ))) :pattern ((slide a old_first new_first)) )))

;; "slice"
(declare-fun slice (map1
  Int
  Int) map1)

;; "slice_eq"
(assert
  (forall ((a map1) (f Int) (l Int))
    (! (=> (has_bounds a f l) (= (slice a f l) a)) :pattern ((slice a f l)
    (has_bounds a f l)) )))

;; "slice_slice"
(assert
  (forall ((a map1) (f1 Int) (l1 Int) (f2 Int) (l2 Int))
    (! (=>
         (and (<= f1 f2) (<= l2 l1))
         (= (slice (slice a f1 l1) f2 l2) (slice a f2 l2))) :pattern (
    (slice
      (slice a f1 l1)
      f2
      l2)) )))

;; "slice_def"
(assert
  (forall ((a map1) (f Int) (l Int))
    (! (forall ((i Int))
         (! (=> (and (<= f i) (<= i l)) (= (get (slice a f l) i) (get a i))) :pattern (
         (get
           (slice a f l)
           i)) :pattern ((get a i)) )) :pattern ((slice a f l)) )))

;; "slice_has_bounds"
(assert
  (forall ((a map1) (f Int) (l Int))
    (! (has_bounds (slice a f l) f l) :pattern ((has_bounds
                                                  (slice a f l)
                                                  f
                                                  l)) )))

;; "bits_12_to_u16"
(declare-fun bits_12_to_u16 (map1) (_ BitVec 16))

;; "bits_12_to_u16__function_guard"
(declare-fun bits_12_to_u16__function_guard ((_ BitVec 16)
  map1) Bool)

;; "zq_to_bits_12"
(declare-fun zq_to_bits_12 ((_ BitVec 16)) map1)

;; "zq_to_bits_12__function_guard"
(declare-fun zq_to_bits_12__function_guard (map1
  (_ BitVec 16)) Bool)

(declare-sort t 0)

;; "in_range"
(define-fun in_range1 ((x (_ BitVec 16))) Bool
  (and (bvule #x0000 x) (bvule x #x0D00)))

;; "to_rep"
(declare-fun to_rep1 (t) (_ BitVec 16))

;; "of_rep"
(declare-fun of_rep1 ((_ BitVec 16)) t)

;; "inversion_axiom"
(assert
  (forall ((x t)) (! (= (of_rep1 (to_rep1 x)) x) :pattern ((to_rep1 x)) )))

;; "range_axiom"
(assert (forall ((x t)) (! (in_range1 (to_rep1 x)) :pattern ((to_rep1 x)) )))

;; "coerce_axiom"
(assert
  (forall ((x (_ BitVec 16)))
    (! (let ((y (bvurem x #x0D01)))
         (=> (in_range1 y) (= (to_rep1 (of_rep1 x)) y))) :pattern ((to_rep1
                                                                    (of_rep1
                                                                    x))) )))

(declare-sort map2 0)

;; "has_bounds"
(declare-fun has_bounds1 (map2
  Int
  Int) Bool)

;; "get"
(declare-fun get1 (map2
  Int) t)

(declare-const f map2)

(declare-sort byte 0)

;; "to_rep"
(declare-fun to_rep2 (byte) (_ BitVec 8))

;; "of_rep"
(declare-fun of_rep2 ((_ BitVec 8)) byte)

;; "inversion_axiom"
(assert
  (forall ((x byte)) (! (= (of_rep2 (to_rep2 x)) x) :pattern ((to_rep2 x)) )))

;; "range_axiom"
(assert true)

;; "coerce_axiom"
(assert
  (forall ((x (_ BitVec 8)))
    (! (= (to_rep2 (of_rep2 x)) x) :pattern ((to_rep2 (of_rep2 x))) )))

(declare-sort map3 0)

;; "has_bounds"
(declare-fun has_bounds2 (map3
  Int
  Int) Bool)

(declare-sort tinteger_32B 0)

;; "tinteger_32B'int"
(declare-fun tinteger_32Bqtint (tinteger_32B) Int)

;; "tinteger_32B'axiom"
(assert
  (forall ((i tinteger_32B))
    (and
      (<= (- 2147483648) (tinteger_32Bqtint i))
      (<= (tinteger_32Bqtint i) 2147483647))))

;; "in_range"
(define-fun in_range2 ((x Int)) Bool
  (and (<= (- 2147483648) x) (<= x 2147483647)))

;; "to_rep"
(define-fun to_rep3 ((x tinteger_32B)) Int
  (tinteger_32Bqtint x))

;; "of_rep"
(declare-fun of_rep3 (Int) tinteger_32B)

;; "inversion_axiom"
(assert
  (forall ((x tinteger_32B))
    (! (= (of_rep3 (to_rep3 x)) x) :pattern ((to_rep3 x)) )))

;; "range_axiom"
(assert
  (forall ((x tinteger_32B))
    (! (in_range2 (to_rep3 x)) :pattern ((to_rep3 x)) )))

;; "coerce_axiom"
(assert
  (forall ((x Int))
    (! (=> (in_range2 x) (= (to_rep3 (of_rep3 x)) x)) :pattern ((to_rep3
                                                                  (of_rep3 x))) )))

(declare-datatypes ((t1 0))
  (((tqtmk (rec__first tinteger_32B)(rec__last tinteger_32B)))))

;; "mk"
(declare-fun mk (Int
  Int) t1)

;; "mk_def"
(assert
  (forall ((f1 Int) (l Int))
    (! (=>
         (in_range2 f1)
         (=>
           (in_range2 l)
           (and
             (= (to_rep3 (rec__first (mk f1 l))) f1)
             (= (to_rep3 (rec__last (mk f1 l))) l)))) :pattern ((mk f1 l)) )))

(declare-datatypes ((us_t 0))
  (((us_tqtmk (elts map1)(rt t1)))))

;; "to_array"
(define-fun to_array ((a us_t)) map1
  (elts a))

;; "of_array"
(define-fun of_array ((a map1) (f1 Int) (l Int)) us_t
  (us_tqtmk a (mk f1 l)))

;; "first"
(define-fun first ((a us_t)) Int
  (to_rep3 (rec__first (rt a))))

;; "last"
(define-fun last ((a us_t)) Int
  (to_rep3 (rec__last (rt a))))

;; "mlkem__byteencode12__b__aggregate_def"
(declare-fun mlkem__byteencode12__b__aggregate_def ((_ BitVec 8)) map1)

;; "bits_12_to_u16__post_axiom"
(assert
  (forall ((param__x map1))
    (! (=>
         (has_bounds param__x 0 11)
         (let ((result (bits_12_to_u16 param__x)))
           (=>
             (bits_12_to_u16__function_guard result param__x)
             (bvult result #x1000)))) :pattern ((bits_12_to_u16 param__x)) )))

;; "bits_12_to_u16__def_axiom"
(assert
  (forall ((param__x map1))
    (! (= (bits_12_to_u16 param__x) (bvadd (bvadd (bvadd (bvadd (bvadd (bvadd (bvadd (bvadd (bvadd (bvadd (bvadd ((_ zero_extend 8) 
    (to_rep
      (get param__x 0))) (bvmul ((_ zero_extend 8) (to_rep (get param__x 1))) #x0002)) (bvmul ((_ zero_extend 8) 
    (to_rep
      (get param__x 2))) #x0004)) (bvmul ((_ zero_extend 8) (to_rep
                                                              (get
                                                                param__x
                                                                3))) #x0008)) (bvmul ((_ zero_extend 8) 
    (to_rep
      (get param__x 4))) #x0010)) (bvmul ((_ zero_extend 8) (to_rep
                                                              (get
                                                                param__x
                                                                5))) #x0020)) (bvmul ((_ zero_extend 8) 
    (to_rep
      (get param__x 6))) #x0040)) (bvmul ((_ zero_extend 8) (to_rep
                                                              (get
                                                                param__x
                                                                7))) #x0080)) (bvmul ((_ zero_extend 8) 
    (to_rep
      (get param__x 8))) #x0100)) (bvmul ((_ zero_extend 8) (to_rep
                                                              (get
                                                                param__x
                                                                9))) #x0200)) (bvmul ((_ zero_extend 8) 
    (to_rep
      (get param__x 10))) #x0400)) (bvmul ((_ zero_extend 8) (to_rep
                                                               (get
                                                                 param__x
                                                                 11))) #x0800))) :pattern (
    (bits_12_to_u16
      param__x)) )))

;; Goal "def'vc"
;; File "mlkem.adb", line 867, characters 0-0
(assert
  (not
  (forall ((r map3))
    (=>
      (has_bounds1 f 0 255)
      (=>
        (has_bounds2 r 0 383)
        (forall ((temp___4343 map1))
          (=>
            (and
              (and
                (has_bounds temp___4343 0 3071)
                (forall ((temp___4342 Int))
                  (! (=>
                       (and (<= 0 temp___4342) (<= temp___4342 3071))
                       (= (to_rep (get temp___4343 temp___4342)) #x00)) :pattern (
                  (get
                    temp___4343
                    temp___4342)) )))
              (= temp___4343 (mlkem__byteencode12__b__aggregate_def #x00)))
            (forall ((b map1))
              (=>
                (= b temp___4343)
                (=>
                  (has_bounds b 0 3071)
                  (forall ((i Int))
                    (=>
                      (= i 0)
                      (=>
                        (= (and (ite (<= 0 i) true false) (ite (<= i 255)
                                                            true
                                                            false)) true)
                        (forall ((o (_ BitVec 16)))
                          (=>
                            (= (to_rep1 (get1 f i)) o)
                            (let ((temp___4349 (zq_to_bits_12 o)))
                              (=>
                                (forall ((temp___43491 map1))
                                  (bits_12_to_u16__function_guard
                                    (bits_12_to_u16 temp___43491)
                                    temp___43491))
                                (=>
                                  (and
                                    (zq_to_bits_12__function_guard
                                      temp___4349
                                      o)
                                    (and
                                      (has_bounds temp___4349 0 11)
                                      (bvult (bits_12_to_u16 temp___4349) #x0D01)))
                                  (=>
                                    (ite (<= 0 11)
                                      (and
                                        (<= (* i 12) (+ (* i 12) 11))
                                        (= (- 11 0) (- (+ (* i 12) 11) (* i 12))))
                                      (< (+ (* i 12) 11) (* i 12)))
                                    (let ((temp___4351 (of_array
                                                         (slide
                                                           temp___4349
                                                           0
                                                           (* i 12))
                                                         (* i 12)
                                                         (+ (* i 12) 11))))
                                      (let ((temp___4353 (+ (* i 12) 11)))
                                        (let ((temp___4352 (* i 12)))
                                          (=>
                                            (=>
                                              (<= temp___4352 temp___4353)
                                              (and
                                                (and
                                                  (<= 0 temp___4352)
                                                  (<= temp___4352 3071))
                                                (and
                                                  (<= 0 temp___4353)
                                                  (<= temp___4353 3071))))
                                            (let ((temp___4354 (of_array
                                                                 (slice
                                                                   b
                                                                   temp___4352
                                                                   temp___4353)
                                                                 temp___4352
                                                                 temp___4353)))
                                              (=>
                                                (ite (<= (first temp___4351) 
                                                  (last
                                                    temp___4351))
                                                  (and
                                                    (<= (first temp___4354) 
                                                    (last
                                                      temp___4354))
                                                    (= (- (last temp___4351) 
                                                    (first
                                                      temp___4351)) (- 
                                                    (last
                                                      temp___4354) (first
                                                                    temp___4354))))
                                                  (< (last temp___4354) 
                                                  (first
                                                    temp___4354)))
                                                (forall ((usf map1))
                                                  (=>
                                                    (forall ((temp___4356 Int))
                                                      (ite (and
                                                             (<= (* i 12) temp___4356)
                                                             (<= temp___4356 (+ (* i 12) 11)))
                                                        (= (get
                                                             usf
                                                             temp___4356) 
                                                        (get
                                                          (to_array
                                                            temp___4351)
                                                          temp___4356))
                                                        (= (get
                                                             usf
                                                             temp___4356) 
                                                        (get
                                                          b
                                                          temp___4356))))
                                                    (forall ((b1 map1))
                                                      (=>
                                                        (= b1 usf)
                                                        (=>
                                                          (forall ((temp___4370 map1))
                                                            (bits_12_to_u16__function_guard
                                                              (bits_12_to_u16
                                                                temp___4370)
                                                              temp___4370))
                                                          (bvult (let ((temp___4370 
                                                                   (let ((temp___4367 
                                                                    (let ((temp___4366 (+ (* i 12) 11)))
                                                                    (let ((temp___4365 (* i 12)))
                                                                    (of_array
                                                                    (slice
                                                                    b1
                                                                    temp___4365
                                                                    temp___4366)
                                                                    temp___4365
                                                                    temp___4366)))))
                                                                    (slide
                                                                    (to_array
                                                                    temp___4367)
                                                                    (first
                                                                    temp___4367)
                                                                    0))))
                                                                   (bits_12_to_u16
                                                                    temp___4370)) #x0D01)))))))))))))))))))))))))))))))

(check-sat)
